solution status: optimal solution found
objective value:                                   40
x25                                                 1 	(obj:1)
x27                                                 1 	(obj:1)
x28                                                 1 	(obj:1)
x30                                                 1 	(obj:1)
x33                                                 1 	(obj:1)
x34                                                 1 	(obj:1)
x35                                                 1 	(obj:1)
x38                                                 1 	(obj:1)
x39                                                 1 	(obj:1)
x40                                                 1 	(obj:1)
x41                                                 1 	(obj:1)
x42                                                 1 	(obj:1)
x43                                                 1 	(obj:1)
x45                                                 1 	(obj:1)
x46                                                 1 	(obj:1)
x47                                                 1 	(obj:1)
x48                                                 1 	(obj:1)
x52                                                 1 	(obj:1)
x54                                                 1 	(obj:1)
x58                                                 1 	(obj:1)
x60                                                 1 	(obj:1)
x62                                                 1 	(obj:1)
x63                                                 1 	(obj:1)
x64                                                 1 	(obj:1)
x65                                                 1 	(obj:1)
x66                                                 1 	(obj:1)
x68                                                 1 	(obj:1)
x70                                                 1 	(obj:1)
x75                                                 1 	(obj:1)
x76                                                 1 	(obj:1)
x77                                                 1 	(obj:1)
x81                                                 1 	(obj:1)
x83                                                 1 	(obj:1)
x85                                                 1 	(obj:1)
x87                                                 1 	(obj:1)
x89                                                 1 	(obj:1)
x93                                                 1 	(obj:1)
x94                                                 1 	(obj:1)
x95                                                 1 	(obj:1)
x96                                                 1 	(obj:1)
one.thingy.devices[3].thingy.v1_y                  -11 	(obj:0)
one.thingy.devices[3].thingy.v1_z                   -8 	(obj:0)
one.thingy.devices[1].thingy.v3_y                   -6 	(obj:0)
one.thingy.devices[1].thingy.v3_z                   -2 	(obj:0)
one.thingy.devices[2].thingy.v2_y                   -9 	(obj:0)
one.thingy.devices[2].thingy.v2_z                   -2 	(obj:0)
one.thingy.devices[0].thingy.v3_y                   -4 	(obj:0)
one.thingy.devices[0].thingy.v3_z                   -1 	(obj:0)
one.thingy.devices[3].thingy.v3_y                  -12 	(obj:0)
one.thingy.devices[3].thingy.v3_z                   -8 	(obj:0)
one.thingy.devices[2].thingy.v1_y                   -8 	(obj:0)
one.thingy.devices[2].thingy.v1_z                   -6 	(obj:0)
one.thingy.devices[2].thingy.v3_y                   -9 	(obj:0)
one.thingy.devices[2].thingy.v3_z                   -6 	(obj:0)
one.thingy.devices[3].thingy.v2_y                  -12 	(obj:0)
one.thingy.devices[3].thingy.v2_z                   -6 	(obj:0)
one.thingy.devices[0].thingy.v1_y                   -4 	(obj:0)
one.thingy.devices[1].thingy.v2_y                   -6 	(obj:0)
one.thingy.devices[0].thingy.v2_y                   -4 	(obj:0)
one.thingy.devices[0].thingy.v2_z                    1 	(obj:0)
one.thingy.devices[1].thingy.v1_y                   -6 	(obj:0)
one.thingy.devices[1].thingy.v1_z                   -3 	(obj:0)
